; benchmark generated from python API
(set-info :status unknown)
(declare-fun cell_1_1 () Int)
(declare-fun cell_2_1 () Int)
(declare-fun cell_3_1 () Int)
(declare-fun cell_4_1 () Int)
(declare-fun cell_5_1 () Int)
(declare-fun cell_6_1 () Int)
(declare-fun cell_7_1 () Int)
(declare-fun cell_8_1 () Int)
(declare-fun cell_9_1 () Int)
(declare-fun cell_1_2 () Int)
(declare-fun cell_2_2 () Int)
(declare-fun cell_3_2 () Int)
(declare-fun cell_4_2 () Int)
(declare-fun cell_5_2 () Int)
(declare-fun cell_6_2 () Int)
(declare-fun cell_7_2 () Int)
(declare-fun cell_8_2 () Int)
(declare-fun cell_9_2 () Int)
(declare-fun cell_1_3 () Int)
(declare-fun cell_2_3 () Int)
(declare-fun cell_3_3 () Int)
(declare-fun cell_4_3 () Int)
(declare-fun cell_5_3 () Int)
(declare-fun cell_6_3 () Int)
(declare-fun cell_7_3 () Int)
(declare-fun cell_8_3 () Int)
(declare-fun cell_9_3 () Int)
(declare-fun cell_1_4 () Int)
(declare-fun cell_2_4 () Int)
(declare-fun cell_3_4 () Int)
(declare-fun cell_4_4 () Int)
(declare-fun cell_5_4 () Int)
(declare-fun cell_6_4 () Int)
(declare-fun cell_7_4 () Int)
(declare-fun cell_8_4 () Int)
(declare-fun cell_9_4 () Int)
(declare-fun cell_1_5 () Int)
(declare-fun cell_2_5 () Int)
(declare-fun cell_3_5 () Int)
(declare-fun cell_4_5 () Int)
(declare-fun cell_5_5 () Int)
(declare-fun cell_6_5 () Int)
(declare-fun cell_7_5 () Int)
(declare-fun cell_8_5 () Int)
(declare-fun cell_9_5 () Int)
(declare-fun cell_1_6 () Int)
(declare-fun cell_2_6 () Int)
(declare-fun cell_3_6 () Int)
(declare-fun cell_4_6 () Int)
(declare-fun cell_5_6 () Int)
(declare-fun cell_6_6 () Int)
(declare-fun cell_7_6 () Int)
(declare-fun cell_8_6 () Int)
(declare-fun cell_9_6 () Int)
(declare-fun cell_1_7 () Int)
(declare-fun cell_2_7 () Int)
(declare-fun cell_3_7 () Int)
(declare-fun cell_4_7 () Int)
(declare-fun cell_5_7 () Int)
(declare-fun cell_6_7 () Int)
(declare-fun cell_7_7 () Int)
(declare-fun cell_8_7 () Int)
(declare-fun cell_9_7 () Int)
(declare-fun cell_1_8 () Int)
(declare-fun cell_2_8 () Int)
(declare-fun cell_3_8 () Int)
(declare-fun cell_4_8 () Int)
(declare-fun cell_5_8 () Int)
(declare-fun cell_6_8 () Int)
(declare-fun cell_7_8 () Int)
(declare-fun cell_8_8 () Int)
(declare-fun cell_9_8 () Int)
(declare-fun cell_1_9 () Int)
(declare-fun cell_2_9 () Int)
(declare-fun cell_3_9 () Int)
(declare-fun cell_4_9 () Int)
(declare-fun cell_5_9 () Int)
(declare-fun cell_6_9 () Int)
(declare-fun cell_7_9 () Int)
(declare-fun cell_8_9 () Int)
(declare-fun cell_9_9 () Int)
(assert
 (let (($x8014 (= cell_1_1 9)))
 (let (($x1907 (= cell_1_1 8)))
 (let (($x2548 (= cell_1_1 7)))
 (let (($x1238 (= cell_1_1 6)))
 (let (($x9801 (= cell_1_1 5)))
 (let (($x10107 (= cell_1_1 4)))
 (let (($x7101 (= cell_1_1 3)))
 (let (($x2911 (= cell_1_1 2)))
 (let (($x10223 (= cell_1_1 1)))
 (or $x10223 $x2911 $x7101 $x10107 $x9801 $x1238 $x2548 $x1907 $x8014)))))))))))
(assert
 (let (($x2242 (= cell_2_1 9)))
 (let (($x713 (= cell_2_1 8)))
 (let (($x7948 (= cell_2_1 7)))
 (let (($x3860 (= cell_2_1 6)))
 (let (($x2908 (= cell_2_1 5)))
 (let (($x356 (= cell_2_1 4)))
 (let (($x481 (= cell_2_1 3)))
 (let (($x2731 (= cell_2_1 2)))
 (let (($x2052 (= cell_2_1 1)))
 (or $x2052 $x2731 $x481 $x356 $x2908 $x3860 $x7948 $x713 $x2242)))))))))))
(assert
 (let (($x592 (= cell_3_1 9)))
 (let (($x5697 (= cell_3_1 8)))
 (let (($x5948 (= cell_3_1 7)))
 (let (($x1410 (= cell_3_1 6)))
 (let (($x1126 (= cell_3_1 5)))
 (let (($x4830 (= cell_3_1 4)))
 (let (($x3246 (= cell_3_1 3)))
 (let (($x8022 (= cell_3_1 2)))
 (let (($x9445 (= cell_3_1 1)))
 (or $x9445 $x8022 $x3246 $x4830 $x1126 $x1410 $x5948 $x5697 $x592)))))))))))
(assert
 (let (($x2461 (= cell_4_1 9)))
 (let (($x6921 (= cell_4_1 8)))
 (let (($x4727 (= cell_4_1 7)))
 (let (($x7358 (= cell_4_1 6)))
 (let (($x7353 (= cell_4_1 5)))
 (let (($x447 (= cell_4_1 4)))
 (let (($x2102 (= cell_4_1 3)))
 (let (($x7099 (= cell_4_1 2)))
 (let (($x2152 (= cell_4_1 1)))
 (or $x2152 $x7099 $x2102 $x447 $x7353 $x7358 $x4727 $x6921 $x2461)))))))))))
(assert
 (let (($x3786 (= cell_5_1 9)))
 (let (($x9995 (= cell_5_1 8)))
 (let (($x5250 (= cell_5_1 7)))
 (let (($x1165 (= cell_5_1 6)))
 (let (($x5424 (= cell_5_1 5)))
 (let (($x3062 (= cell_5_1 4)))
 (let (($x4731 (= cell_5_1 3)))
 (let (($x1951 (= cell_5_1 2)))
 (let (($x4892 (= cell_5_1 1)))
 (or $x4892 $x1951 $x4731 $x3062 $x5424 $x1165 $x5250 $x9995 $x3786)))))))))))
(assert
 (let (($x9201 (= cell_6_1 9)))
 (let (($x7129 (= cell_6_1 8)))
 (let (($x194 (= cell_6_1 7)))
 (let (($x2703 (= cell_6_1 6)))
 (let (($x6452 (= cell_6_1 5)))
 (let (($x6271 (= cell_6_1 4)))
 (let (($x2132 (= cell_6_1 3)))
 (let (($x8863 (= cell_6_1 2)))
 (let (($x4274 (= cell_6_1 1)))
 (or $x4274 $x8863 $x2132 $x6271 $x6452 $x2703 $x194 $x7129 $x9201)))))))))))
(assert
 (let (($x5309 (= cell_7_1 9)))
 (let (($x4638 (= cell_7_1 8)))
 (let (($x7704 (= cell_7_1 7)))
 (let (($x4377 (= cell_7_1 6)))
 (let (($x1488 (= cell_7_1 5)))
 (let (($x492 (= cell_7_1 4)))
 (let (($x9746 (= cell_7_1 3)))
 (let (($x7577 (= cell_7_1 2)))
 (let (($x7073 (= cell_7_1 1)))
 (or $x7073 $x7577 $x9746 $x492 $x1488 $x4377 $x7704 $x4638 $x5309)))))))))))
(assert
 (let (($x76 (= cell_8_1 9)))
 (let (($x4706 (= cell_8_1 8)))
 (let (($x7751 (= cell_8_1 7)))
 (let (($x933 (= cell_8_1 6)))
 (let (($x1694 (= cell_8_1 5)))
 (let (($x8760 (= cell_8_1 4)))
 (let (($x2401 (= cell_8_1 3)))
 (let (($x5772 (= cell_8_1 2)))
 (let (($x8990 (= cell_8_1 1)))
 (or $x8990 $x5772 $x2401 $x8760 $x1694 $x933 $x7751 $x4706 $x76)))))))))))
(assert
 (let (($x4619 (= cell_9_1 9)))
 (let (($x9073 (= cell_9_1 8)))
 (let (($x4383 (= cell_9_1 7)))
 (let (($x5263 (= cell_9_1 6)))
 (let (($x10167 (= cell_9_1 5)))
 (let (($x1723 (= cell_9_1 4)))
 (let (($x4414 (= cell_9_1 3)))
 (let (($x8619 (= cell_9_1 2)))
 (let (($x2872 (= cell_9_1 1)))
 (or $x2872 $x8619 $x4414 $x1723 $x10167 $x5263 $x4383 $x9073 $x4619)))))))))))
(assert
 (let (($x5320 (= cell_1_2 9)))
 (let (($x7663 (= cell_1_2 8)))
 (let (($x4020 (= cell_1_2 7)))
 (let (($x7171 (= cell_1_2 6)))
 (let (($x8995 (= cell_1_2 5)))
 (let (($x7459 (= cell_1_2 4)))
 (let (($x9393 (= cell_1_2 3)))
 (let (($x3388 (= cell_1_2 2)))
 (let (($x9053 (= cell_1_2 1)))
 (or $x9053 $x3388 $x9393 $x7459 $x8995 $x7171 $x4020 $x7663 $x5320)))))))))))
(assert
 (let (($x6577 (= cell_2_2 9)))
 (let (($x8123 (= cell_2_2 8)))
 (let (($x8199 (= cell_2_2 7)))
 (let (($x4328 (= cell_2_2 6)))
 (let (($x5695 (= cell_2_2 5)))
 (let (($x5194 (= cell_2_2 4)))
 (let (($x1045 (= cell_2_2 3)))
 (let (($x2530 (= cell_2_2 2)))
 (let (($x1064 (= cell_2_2 1)))
 (or $x1064 $x2530 $x1045 $x5194 $x5695 $x4328 $x8199 $x8123 $x6577)))))))))))
(assert
 (let (($x7164 (= cell_3_2 9)))
 (let (($x8003 (= cell_3_2 8)))
 (let (($x8845 (= cell_3_2 7)))
 (let (($x5269 (= cell_3_2 6)))
 (let (($x3581 (= cell_3_2 5)))
 (let (($x8564 (= cell_3_2 4)))
 (let (($x7337 (= cell_3_2 3)))
 (let (($x6133 (= cell_3_2 2)))
 (let (($x6174 (= cell_3_2 1)))
 (or $x6174 $x6133 $x7337 $x8564 $x3581 $x5269 $x8845 $x8003 $x7164)))))))))))
(assert
 (let (($x7328 (= cell_4_2 9)))
 (let (($x3380 (= cell_4_2 8)))
 (let (($x875 (= cell_4_2 7)))
 (let (($x5970 (= cell_4_2 6)))
 (let (($x1062 (= cell_4_2 5)))
 (let (($x5126 (= cell_4_2 4)))
 (let (($x205 (= cell_4_2 3)))
 (let (($x6264 (= cell_4_2 2)))
 (let (($x975 (= cell_4_2 1)))
 (or $x975 $x6264 $x205 $x5126 $x1062 $x5970 $x875 $x3380 $x7328)))))))))))
(assert
 (let (($x7569 (= cell_5_2 9)))
 (let (($x547 (= cell_5_2 8)))
 (let (($x8529 (= cell_5_2 7)))
 (let (($x735 (= cell_5_2 6)))
 (let (($x1652 (= cell_5_2 5)))
 (let (($x4026 (= cell_5_2 4)))
 (let (($x1197 (= cell_5_2 3)))
 (let (($x3612 (= cell_5_2 2)))
 (let (($x7795 (= cell_5_2 1)))
 (or $x7795 $x3612 $x1197 $x4026 $x1652 $x735 $x8529 $x547 $x7569)))))))))))
(assert
 (let (($x5939 (= cell_6_2 9)))
 (let (($x4781 (= cell_6_2 8)))
 (let (($x6932 (= cell_6_2 7)))
 (let (($x1942 (= cell_6_2 6)))
 (let (($x51 (= cell_6_2 5)))
 (let (($x919 (= cell_6_2 4)))
 (let (($x4123 (= cell_6_2 3)))
 (let (($x3801 (= cell_6_2 2)))
 (let (($x8111 (= cell_6_2 1)))
 (or $x8111 $x3801 $x4123 $x919 $x51 $x1942 $x6932 $x4781 $x5939)))))))))))
(assert
 (let (($x2200 (= cell_7_2 9)))
 (let (($x6557 (= cell_7_2 8)))
 (let (($x4470 (= cell_7_2 7)))
 (let (($x3881 (= cell_7_2 6)))
 (let (($x7454 (= cell_7_2 5)))
 (let (($x215 (= cell_7_2 4)))
 (let (($x862 (= cell_7_2 3)))
 (let (($x7782 (= cell_7_2 2)))
 (let (($x4067 (= cell_7_2 1)))
 (or $x4067 $x7782 $x862 $x215 $x7454 $x3881 $x4470 $x6557 $x2200)))))))))))
(assert
 (let (($x3863 (= cell_8_2 9)))
 (let (($x2465 (= cell_8_2 8)))
 (let (($x2656 (= cell_8_2 7)))
 (let (($x3493 (= cell_8_2 6)))
 (let (($x1573 (= cell_8_2 5)))
 (let (($x3150 (= cell_8_2 4)))
 (let (($x7269 (= cell_8_2 3)))
 (let (($x1748 (= cell_8_2 2)))
 (let (($x6267 (= cell_8_2 1)))
 (or $x6267 $x1748 $x7269 $x3150 $x1573 $x3493 $x2656 $x2465 $x3863)))))))))))
(assert
 (let (($x2619 (= cell_9_2 9)))
 (let (($x3026 (= cell_9_2 8)))
 (let (($x4539 (= cell_9_2 7)))
 (let (($x2968 (= cell_9_2 6)))
 (let (($x9365 (= cell_9_2 5)))
 (let (($x8210 (= cell_9_2 4)))
 (let (($x1949 (= cell_9_2 3)))
 (let (($x5765 (= cell_9_2 2)))
 (let (($x6068 (= cell_9_2 1)))
 (or $x6068 $x5765 $x1949 $x8210 $x9365 $x2968 $x4539 $x3026 $x2619)))))))))))
(assert
 (let (($x4552 (= cell_1_3 9)))
 (let (($x6392 (= cell_1_3 8)))
 (let (($x4266 (= cell_1_3 7)))
 (let (($x3672 (= cell_1_3 6)))
 (let (($x4953 (= cell_1_3 5)))
 (let (($x5128 (= cell_1_3 4)))
 (let (($x584 (= cell_1_3 3)))
 (let (($x2128 (= cell_1_3 2)))
 (let (($x3408 (= cell_1_3 1)))
 (or $x3408 $x2128 $x584 $x5128 $x4953 $x3672 $x4266 $x6392 $x4552)))))))))))
(assert
 (let (($x4395 (= cell_2_3 9)))
 (let (($x5752 (= cell_2_3 8)))
 (let (($x9538 (= cell_2_3 7)))
 (let (($x2201 (= cell_2_3 6)))
 (let (($x9879 (= cell_2_3 5)))
 (let (($x5416 (= cell_2_3 4)))
 (let (($x3990 (= cell_2_3 3)))
 (let (($x7524 (= cell_2_3 2)))
 (let (($x3509 (= cell_2_3 1)))
 (or $x3509 $x7524 $x3990 $x5416 $x9879 $x2201 $x9538 $x5752 $x4395)))))))))))
(assert
 (let (($x116 (= cell_3_3 9)))
 (let (($x5871 (= cell_3_3 8)))
 (let (($x953 (= cell_3_3 7)))
 (let (($x9074 (= cell_3_3 6)))
 (let (($x1481 (= cell_3_3 5)))
 (let (($x9641 (= cell_3_3 4)))
 (let (($x3646 (= cell_3_3 3)))
 (let (($x5996 (= cell_3_3 2)))
 (let (($x3889 (= cell_3_3 1)))
 (or $x3889 $x5996 $x3646 $x9641 $x1481 $x9074 $x953 $x5871 $x116)))))))))))
(assert
 (let (($x3839 (= cell_4_3 9)))
 (let (($x8252 (= cell_4_3 8)))
 (let (($x6395 (= cell_4_3 7)))
 (let (($x4533 (= cell_4_3 6)))
 (let (($x952 (= cell_4_3 5)))
 (let (($x5675 (= cell_4_3 4)))
 (let (($x4494 (= cell_4_3 3)))
 (let (($x529 (= cell_4_3 2)))
 (let (($x445 (= cell_4_3 1)))
 (or $x445 $x529 $x4494 $x5675 $x952 $x4533 $x6395 $x8252 $x3839)))))))))))
(assert
 (let (($x3342 (= cell_5_3 9)))
 (let (($x9430 (= cell_5_3 8)))
 (let (($x3281 (= cell_5_3 7)))
 (let (($x7457 (= cell_5_3 6)))
 (let (($x3662 (= cell_5_3 5)))
 (let (($x4491 (= cell_5_3 4)))
 (let (($x7356 (= cell_5_3 3)))
 (let (($x5155 (= cell_5_3 2)))
 (let (($x226 (= cell_5_3 1)))
 (or $x226 $x5155 $x7356 $x4491 $x3662 $x7457 $x3281 $x9430 $x3342)))))))))))
(assert
 (let (($x6468 (= cell_6_3 9)))
 (let (($x4335 (= cell_6_3 8)))
 (let (($x6143 (= cell_6_3 7)))
 (let (($x6032 (= cell_6_3 6)))
 (let (($x3106 (= cell_6_3 5)))
 (let (($x230 (= cell_6_3 4)))
 (let (($x9907 (= cell_6_3 3)))
 (let (($x7324 (= cell_6_3 2)))
 (let (($x8001 (= cell_6_3 1)))
 (or $x8001 $x7324 $x9907 $x230 $x3106 $x6032 $x6143 $x4335 $x6468)))))))))))
(assert
 (let (($x525 (= cell_7_3 9)))
 (let (($x9571 (= cell_7_3 8)))
 (let (($x3003 (= cell_7_3 7)))
 (let (($x7802 (= cell_7_3 6)))
 (let (($x5150 (= cell_7_3 5)))
 (let (($x1466 (= cell_7_3 4)))
 (let (($x8919 (= cell_7_3 3)))
 (let (($x6570 (= cell_7_3 2)))
 (let (($x4885 (= cell_7_3 1)))
 (or $x4885 $x6570 $x8919 $x1466 $x5150 $x7802 $x3003 $x9571 $x525)))))))))))
(assert
 (let (($x112 (= cell_8_3 9)))
 (let (($x6930 (= cell_8_3 8)))
 (let (($x2665 (= cell_8_3 7)))
 (let (($x1221 (= cell_8_3 6)))
 (let (($x2739 (= cell_8_3 5)))
 (let (($x4345 (= cell_8_3 4)))
 (let (($x9708 (= cell_8_3 3)))
 (let (($x9800 (= cell_8_3 2)))
 (let (($x7250 (= cell_8_3 1)))
 (or $x7250 $x9800 $x9708 $x4345 $x2739 $x1221 $x2665 $x6930 $x112)))))))))))
(assert
 (let (($x7781 (= cell_9_3 9)))
 (let (($x6161 (= cell_9_3 8)))
 (let (($x9728 (= cell_9_3 7)))
 (let (($x2443 (= cell_9_3 6)))
 (let (($x3491 (= cell_9_3 5)))
 (let (($x7533 (= cell_9_3 4)))
 (let (($x2266 (= cell_9_3 3)))
 (let (($x8820 (= cell_9_3 2)))
 (let (($x412 (= cell_9_3 1)))
 (or $x412 $x8820 $x2266 $x7533 $x3491 $x2443 $x9728 $x6161 $x7781)))))))))))
(assert
 (let (($x1276 (= cell_1_4 9)))
 (let (($x7484 (= cell_1_4 8)))
 (let (($x2062 (= cell_1_4 7)))
 (let (($x1781 (= cell_1_4 6)))
 (let (($x4944 (= cell_1_4 5)))
 (let (($x1838 (= cell_1_4 4)))
 (let (($x1142 (= cell_1_4 3)))
 (let (($x3717 (= cell_1_4 2)))
 (let (($x9655 (= cell_1_4 1)))
 (or $x9655 $x3717 $x1142 $x1838 $x4944 $x1781 $x2062 $x7484 $x1276)))))))))))
(assert
 (let (($x8061 (= cell_2_4 9)))
 (let (($x1544 (= cell_2_4 8)))
 (let (($x5633 (= cell_2_4 7)))
 (let (($x3568 (= cell_2_4 6)))
 (let (($x8194 (= cell_2_4 5)))
 (let (($x8745 (= cell_2_4 4)))
 (let (($x4522 (= cell_2_4 3)))
 (let (($x6404 (= cell_2_4 2)))
 (let (($x4261 (= cell_2_4 1)))
 (or $x4261 $x6404 $x4522 $x8745 $x8194 $x3568 $x5633 $x1544 $x8061)))))))))))
(assert
 (let (($x8335 (= cell_3_4 9)))
 (let (($x2245 (= cell_3_4 8)))
 (let (($x2734 (= cell_3_4 7)))
 (let (($x6130 (= cell_3_4 6)))
 (let (($x1730 (= cell_3_4 5)))
 (let (($x406 (= cell_3_4 4)))
 (let (($x6781 (= cell_3_4 3)))
 (let (($x2067 (= cell_3_4 2)))
 (let (($x1884 (= cell_3_4 1)))
 (or $x1884 $x2067 $x6781 $x406 $x1730 $x6130 $x2734 $x2245 $x8335)))))))))))
(assert
 (let (($x9121 (= cell_4_4 9)))
 (let (($x9785 (= cell_4_4 8)))
 (let (($x6665 (= cell_4_4 7)))
 (let (($x9413 (= cell_4_4 6)))
 (let (($x1325 (= cell_4_4 5)))
 (let (($x6655 (= cell_4_4 4)))
 (let (($x6464 (= cell_4_4 3)))
 (let (($x5855 (= cell_4_4 2)))
 (let (($x8490 (= cell_4_4 1)))
 (or $x8490 $x5855 $x6464 $x6655 $x1325 $x9413 $x6665 $x9785 $x9121)))))))))))
(assert
 (let (($x4602 (= cell_5_4 9)))
 (let (($x8148 (= cell_5_4 8)))
 (let (($x8113 (= cell_5_4 7)))
 (let (($x3252 (= cell_5_4 6)))
 (let (($x4750 (= cell_5_4 5)))
 (let (($x8396 (= cell_5_4 4)))
 (let (($x815 (= cell_5_4 3)))
 (let (($x1268 (= cell_5_4 2)))
 (let (($x6292 (= cell_5_4 1)))
 (or $x6292 $x1268 $x815 $x8396 $x4750 $x3252 $x8113 $x8148 $x4602)))))))))))
(assert
 (let (($x2351 (= cell_6_4 9)))
 (let (($x9085 (= cell_6_4 8)))
 (let (($x25 (= cell_6_4 7)))
 (let (($x9688 (= cell_6_4 6)))
 (let (($x2493 (= cell_6_4 5)))
 (let (($x7613 (= cell_6_4 4)))
 (let (($x3012 (= cell_6_4 3)))
 (let (($x10062 (= cell_6_4 2)))
 (let (($x5049 (= cell_6_4 1)))
 (or $x5049 $x10062 $x3012 $x7613 $x2493 $x9688 $x25 $x9085 $x2351)))))))))))
(assert
 (let (($x5338 (= cell_7_4 9)))
 (let (($x8222 (= cell_7_4 8)))
 (let (($x3109 (= cell_7_4 7)))
 (let (($x4631 (= cell_7_4 6)))
 (let (($x3552 (= cell_7_4 5)))
 (let (($x2086 (= cell_7_4 4)))
 (let (($x559 (= cell_7_4 3)))
 (let (($x8985 (= cell_7_4 2)))
 (let (($x9131 (= cell_7_4 1)))
 (or $x9131 $x8985 $x559 $x2086 $x3552 $x4631 $x3109 $x8222 $x5338)))))))))))
(assert
 (let (($x3354 (= cell_8_4 9)))
 (let (($x3239 (= cell_8_4 8)))
 (let (($x10020 (= cell_8_4 7)))
 (let (($x3968 (= cell_8_4 6)))
 (let (($x3255 (= cell_8_4 5)))
 (let (($x782 (= cell_8_4 4)))
 (let (($x5086 (= cell_8_4 3)))
 (let (($x4933 (= cell_8_4 2)))
 (let (($x3210 (= cell_8_4 1)))
 (or $x3210 $x4933 $x5086 $x782 $x3255 $x3968 $x10020 $x3239 $x3354)))))))))))
(assert
 (let (($x4065 (= cell_9_4 9)))
 (let (($x7824 (= cell_9_4 8)))
 (let (($x3081 (= cell_9_4 7)))
 (let (($x1448 (= cell_9_4 6)))
 (let (($x7556 (= cell_9_4 5)))
 (let (($x9565 (= cell_9_4 4)))
 (let (($x660 (= cell_9_4 3)))
 (let (($x1499 (= cell_9_4 2)))
 (let (($x7526 (= cell_9_4 1)))
 (or $x7526 $x1499 $x660 $x9565 $x7556 $x1448 $x3081 $x7824 $x4065)))))))))))
(assert
 (let (($x3013 (= cell_1_5 9)))
 (let (($x1756 (= cell_1_5 8)))
 (let (($x4181 (= cell_1_5 7)))
 (let (($x3564 (= cell_1_5 6)))
 (let (($x1297 (= cell_1_5 5)))
 (let (($x2628 (= cell_1_5 4)))
 (let (($x8682 (= cell_1_5 3)))
 (let (($x4962 (= cell_1_5 2)))
 (let (($x10008 (= cell_1_5 1)))
 (or $x10008 $x4962 $x8682 $x2628 $x1297 $x3564 $x4181 $x1756 $x3013)))))))))))
(assert
 (let (($x7021 (= cell_2_5 9)))
 (let (($x9030 (= cell_2_5 8)))
 (let (($x3098 (= cell_2_5 7)))
 (let (($x9043 (= cell_2_5 6)))
 (let (($x3225 (= cell_2_5 5)))
 (let (($x5234 (= cell_2_5 4)))
 (let (($x1665 (= cell_2_5 3)))
 (let (($x2237 (= cell_2_5 2)))
 (let (($x5012 (= cell_2_5 1)))
 (or $x5012 $x2237 $x1665 $x5234 $x3225 $x9043 $x3098 $x9030 $x7021)))))))))))
(assert
 (let (($x4298 (= cell_3_5 9)))
 (let (($x2331 (= cell_3_5 8)))
 (let (($x2929 (= cell_3_5 7)))
 (let (($x8692 (= cell_3_5 6)))
 (let (($x2262 (= cell_3_5 5)))
 (let (($x5592 (= cell_3_5 4)))
 (let (($x4700 (= cell_3_5 3)))
 (let (($x7202 (= cell_3_5 2)))
 (let (($x1583 (= cell_3_5 1)))
 (or $x1583 $x7202 $x4700 $x5592 $x2262 $x8692 $x2929 $x2331 $x4298)))))))))))
(assert
 (let (($x10144 (= cell_4_5 9)))
 (let (($x2677 (= cell_4_5 8)))
 (let (($x7828 (= cell_4_5 7)))
 (let (($x1361 (= cell_4_5 6)))
 (let (($x10035 (= cell_4_5 5)))
 (let (($x1153 (= cell_4_5 4)))
 (let (($x3617 (= cell_4_5 3)))
 (let (($x8180 (= cell_4_5 2)))
 (let (($x9154 (= cell_4_5 1)))
 (or $x9154 $x8180 $x3617 $x1153 $x10035 $x1361 $x7828 $x2677 $x10144)))))))))))
(assert
 (let (($x3836 (= cell_5_5 9)))
 (let (($x5731 (= cell_5_5 8)))
 (let (($x3849 (= cell_5_5 7)))
 (let (($x3923 (= cell_5_5 6)))
 (let (($x6217 (= cell_5_5 5)))
 (let (($x9681 (= cell_5_5 4)))
 (let (($x2436 (= cell_5_5 3)))
 (let (($x303 (= cell_5_5 2)))
 (let (($x6922 (= cell_5_5 1)))
 (or $x6922 $x303 $x2436 $x9681 $x6217 $x3923 $x3849 $x5731 $x3836)))))))))))
(assert
 (let (($x9077 (= cell_6_5 9)))
 (let (($x8553 (= cell_6_5 8)))
 (let (($x6689 (= cell_6_5 7)))
 (let (($x5854 (= cell_6_5 6)))
 (let (($x6064 (= cell_6_5 5)))
 (let (($x6873 (= cell_6_5 4)))
 (let (($x2362 (= cell_6_5 3)))
 (let (($x1075 (= cell_6_5 2)))
 (let (($x968 (= cell_6_5 1)))
 (or $x968 $x1075 $x2362 $x6873 $x6064 $x5854 $x6689 $x8553 $x9077)))))))))))
(assert
 (let (($x8481 (= cell_7_5 9)))
 (let (($x3608 (= cell_7_5 8)))
 (let (($x8542 (= cell_7_5 7)))
 (let (($x990 (= cell_7_5 6)))
 (let (($x101 (= cell_7_5 5)))
 (let (($x2965 (= cell_7_5 4)))
 (let (($x1888 (= cell_7_5 3)))
 (let (($x4232 (= cell_7_5 2)))
 (let (($x1902 (= cell_7_5 1)))
 (or $x1902 $x4232 $x1888 $x2965 $x101 $x990 $x8542 $x3608 $x8481)))))))))))
(assert
 (let (($x26 (= cell_8_5 9)))
 (let (($x3462 (= cell_8_5 8)))
 (let (($x10098 (= cell_8_5 7)))
 (let (($x5307 (= cell_8_5 6)))
 (let (($x8044 (= cell_8_5 5)))
 (let (($x6413 (= cell_8_5 4)))
 (let (($x4143 (= cell_8_5 3)))
 (let (($x7854 (= cell_8_5 2)))
 (let (($x3245 (= cell_8_5 1)))
 (or $x3245 $x7854 $x4143 $x6413 $x8044 $x5307 $x10098 $x3462 $x26)))))))))))
(assert
 (let (($x1503 (= cell_9_5 9)))
 (let (($x9916 (= cell_9_5 8)))
 (let (($x2535 (= cell_9_5 7)))
 (let (($x560 (= cell_9_5 6)))
 (let (($x2533 (= cell_9_5 5)))
 (let (($x8731 (= cell_9_5 4)))
 (let (($x3435 (= cell_9_5 3)))
 (let (($x1731 (= cell_9_5 2)))
 (let (($x6519 (= cell_9_5 1)))
 (or $x6519 $x1731 $x3435 $x8731 $x2533 $x560 $x2535 $x9916 $x1503)))))))))))
(assert
 (let (($x8690 (= cell_1_6 9)))
 (let (($x5620 (= cell_1_6 8)))
 (let (($x7103 (= cell_1_6 7)))
 (let (($x4983 (= cell_1_6 6)))
 (let (($x415 (= cell_1_6 5)))
 (let (($x5972 (= cell_1_6 4)))
 (let (($x4154 (= cell_1_6 3)))
 (let (($x9079 (= cell_1_6 2)))
 (let (($x6955 (= cell_1_6 1)))
 (or $x6955 $x9079 $x4154 $x5972 $x415 $x4983 $x7103 $x5620 $x8690)))))))))))
(assert
 (let (($x2819 (= cell_2_6 9)))
 (let (($x6565 (= cell_2_6 8)))
 (let (($x4040 (= cell_2_6 7)))
 (let (($x1746 (= cell_2_6 6)))
 (let (($x1077 (= cell_2_6 5)))
 (let (($x6551 (= cell_2_6 4)))
 (let (($x4465 (= cell_2_6 3)))
 (let (($x3420 (= cell_2_6 2)))
 (let (($x1198 (= cell_2_6 1)))
 (or $x1198 $x3420 $x4465 $x6551 $x1077 $x1746 $x4040 $x6565 $x2819)))))))))))
(assert
 (let (($x3997 (= cell_3_6 9)))
 (let (($x648 (= cell_3_6 8)))
 (let (($x490 (= cell_3_6 7)))
 (let (($x963 (= cell_3_6 6)))
 (let (($x253 (= cell_3_6 5)))
 (let (($x4708 (= cell_3_6 4)))
 (let (($x8916 (= cell_3_6 3)))
 (let (($x8932 (= cell_3_6 2)))
 (let (($x2740 (= cell_3_6 1)))
 (or $x2740 $x8932 $x8916 $x4708 $x253 $x963 $x490 $x648 $x3997)))))))))))
(assert
 (let (($x674 (= cell_4_6 9)))
 (let (($x4563 (= cell_4_6 8)))
 (let (($x3289 (= cell_4_6 7)))
 (let (($x8233 (= cell_4_6 6)))
 (let (($x3466 (= cell_4_6 5)))
 (let (($x8694 (= cell_4_6 4)))
 (let (($x7006 (= cell_4_6 3)))
 (let (($x10197 (= cell_4_6 2)))
 (let (($x8312 (= cell_4_6 1)))
 (or $x8312 $x10197 $x7006 $x8694 $x3466 $x8233 $x3289 $x4563 $x674)))))))))))
(assert
 (let (($x9506 (= cell_5_6 9)))
 (let (($x434 (= cell_5_6 8)))
 (let (($x2415 (= cell_5_6 7)))
 (let (($x4021 (= cell_5_6 6)))
 (let (($x6617 (= cell_5_6 5)))
 (let (($x6106 (= cell_5_6 4)))
 (let (($x3802 (= cell_5_6 3)))
 (let (($x8673 (= cell_5_6 2)))
 (let (($x7294 (= cell_5_6 1)))
 (or $x7294 $x8673 $x3802 $x6106 $x6617 $x4021 $x2415 $x434 $x9506)))))))))))
(assert
 (let (($x3123 (= cell_6_6 9)))
 (let (($x3747 (= cell_6_6 8)))
 (let (($x1526 (= cell_6_6 7)))
 (let (($x4411 (= cell_6_6 6)))
 (let (($x5866 (= cell_6_6 5)))
 (let (($x4756 (= cell_6_6 4)))
 (let (($x9366 (= cell_6_6 3)))
 (let (($x961 (= cell_6_6 2)))
 (let (($x3118 (= cell_6_6 1)))
 (or $x3118 $x961 $x9366 $x4756 $x5866 $x4411 $x1526 $x3747 $x3123)))))))))))
(assert
 (let (($x7225 (= cell_7_6 9)))
 (let (($x8676 (= cell_7_6 8)))
 (let (($x7106 (= cell_7_6 7)))
 (let (($x9689 (= cell_7_6 6)))
 (let (($x4171 (= cell_7_6 5)))
 (let (($x2098 (= cell_7_6 4)))
 (let (($x891 (= cell_7_6 3)))
 (let (($x7062 (= cell_7_6 2)))
 (let (($x2251 (= cell_7_6 1)))
 (or $x2251 $x7062 $x891 $x2098 $x4171 $x9689 $x7106 $x8676 $x7225)))))))))))
(assert
 (let (($x1460 (= cell_8_6 9)))
 (let (($x2211 (= cell_8_6 8)))
 (let (($x1996 (= cell_8_6 7)))
 (let (($x9512 (= cell_8_6 6)))
 (let (($x1072 (= cell_8_6 5)))
 (let (($x8662 (= cell_8_6 4)))
 (let (($x1504 (= cell_8_6 3)))
 (let (($x5291 (= cell_8_6 2)))
 (let (($x1912 (= cell_8_6 1)))
 (or $x1912 $x5291 $x1504 $x8662 $x1072 $x9512 $x1996 $x2211 $x1460)))))))))))
(assert
 (let (($x9034 (= cell_9_6 9)))
 (let (($x2056 (= cell_9_6 8)))
 (let (($x8095 (= cell_9_6 7)))
 (let (($x877 (= cell_9_6 6)))
 (let (($x2554 (= cell_9_6 5)))
 (let (($x4339 (= cell_9_6 4)))
 (let (($x3278 (= cell_9_6 3)))
 (let (($x7296 (= cell_9_6 2)))
 (let (($x671 (= cell_9_6 1)))
 (or $x671 $x7296 $x3278 $x4339 $x2554 $x877 $x8095 $x2056 $x9034)))))))))))
(assert
 (let (($x1887 (= cell_1_7 9)))
 (let (($x768 (= cell_1_7 8)))
 (let (($x3706 (= cell_1_7 7)))
 (let (($x7768 (= cell_1_7 6)))
 (let (($x8770 (= cell_1_7 5)))
 (let (($x7333 (= cell_1_7 4)))
 (let (($x3480 (= cell_1_7 3)))
 (let (($x7440 (= cell_1_7 2)))
 (let (($x3145 (= cell_1_7 1)))
 (or $x3145 $x7440 $x3480 $x7333 $x8770 $x7768 $x3706 $x768 $x1887)))))))))))
(assert
 (let (($x5988 (= cell_2_7 9)))
 (let (($x7858 (= cell_2_7 8)))
 (let (($x137 (= cell_2_7 7)))
 (let (($x3961 (= cell_2_7 6)))
 (let (($x8310 (= cell_2_7 5)))
 (let (($x2526 (= cell_2_7 4)))
 (let (($x493 (= cell_2_7 3)))
 (let (($x5929 (= cell_2_7 2)))
 (let (($x1668 (= cell_2_7 1)))
 (or $x1668 $x5929 $x493 $x2526 $x8310 $x3961 $x137 $x7858 $x5988)))))))))))
(assert
 (let (($x6055 (= cell_3_7 9)))
 (let (($x9428 (= cell_3_7 8)))
 (let (($x8320 (= cell_3_7 7)))
 (let (($x2037 (= cell_3_7 6)))
 (let (($x940 (= cell_3_7 5)))
 (let (($x755 (= cell_3_7 4)))
 (let (($x3634 (= cell_3_7 3)))
 (let (($x9232 (= cell_3_7 2)))
 (let (($x1983 (= cell_3_7 1)))
 (or $x1983 $x9232 $x3634 $x755 $x940 $x2037 $x8320 $x9428 $x6055)))))))))))
(assert
 (let (($x1644 (= cell_4_7 9)))
 (let (($x4180 (= cell_4_7 8)))
 (let (($x1802 (= cell_4_7 7)))
 (let (($x3701 (= cell_4_7 6)))
 (let (($x3534 (= cell_4_7 5)))
 (let (($x6428 (= cell_4_7 4)))
 (let (($x5782 (= cell_4_7 3)))
 (let (($x1811 (= cell_4_7 2)))
 (let (($x5092 (= cell_4_7 1)))
 (or $x5092 $x1811 $x5782 $x6428 $x3534 $x3701 $x1802 $x4180 $x1644)))))))))))
(assert
 (let (($x5061 (= cell_5_7 9)))
 (let (($x8964 (= cell_5_7 8)))
 (let (($x9194 (= cell_5_7 7)))
 (let (($x9163 (= cell_5_7 6)))
 (let (($x2974 (= cell_5_7 5)))
 (let (($x2834 (= cell_5_7 4)))
 (let (($x6844 (= cell_5_7 3)))
 (let (($x3000 (= cell_5_7 2)))
 (let (($x214 (= cell_5_7 1)))
 (or $x214 $x3000 $x6844 $x2834 $x2974 $x9163 $x9194 $x8964 $x5061)))))))))))
(assert
 (let (($x3102 (= cell_6_7 9)))
 (let (($x4906 (= cell_6_7 8)))
 (let (($x5883 (= cell_6_7 7)))
 (let (($x9098 (= cell_6_7 6)))
 (let (($x9 (= cell_6_7 5)))
 (let (($x5456 (= cell_6_7 4)))
 (let (($x8695 (= cell_6_7 3)))
 (let (($x2900 (= cell_6_7 2)))
 (let (($x8341 (= cell_6_7 1)))
 (or $x8341 $x2900 $x8695 $x5456 $x9 $x9098 $x5883 $x4906 $x3102)))))))))))
(assert
 (let (($x2081 (= cell_7_7 9)))
 (let (($x3625 (= cell_7_7 8)))
 (let (($x5664 (= cell_7_7 7)))
 (let (($x9949 (= cell_7_7 6)))
 (let (($x5572 (= cell_7_7 5)))
 (let (($x298 (= cell_7_7 4)))
 (let (($x1684 (= cell_7_7 3)))
 (let (($x7988 (= cell_7_7 2)))
 (let (($x7803 (= cell_7_7 1)))
 (or $x7803 $x7988 $x1684 $x298 $x5572 $x9949 $x5664 $x3625 $x2081)))))))))))
(assert
 (let (($x9691 (= cell_8_7 9)))
 (let (($x275 (= cell_8_7 8)))
 (let (($x9671 (= cell_8_7 7)))
 (let (($x1453 (= cell_8_7 6)))
 (let (($x4733 (= cell_8_7 5)))
 (let (($x2104 (= cell_8_7 4)))
 (let (($x3326 (= cell_8_7 3)))
 (let (($x2309 (= cell_8_7 2)))
 (let (($x4905 (= cell_8_7 1)))
 (or $x4905 $x2309 $x3326 $x2104 $x4733 $x1453 $x9671 $x275 $x9691)))))))))))
(assert
 (let (($x5199 (= cell_9_7 9)))
 (let (($x9710 (= cell_9_7 8)))
 (let (($x8236 (= cell_9_7 7)))
 (let (($x9007 (= cell_9_7 6)))
 (let (($x5769 (= cell_9_7 5)))
 (let (($x2008 (= cell_9_7 4)))
 (let (($x759 (= cell_9_7 3)))
 (let (($x3590 (= cell_9_7 2)))
 (let (($x49 (= cell_9_7 1)))
 (or $x49 $x3590 $x759 $x2008 $x5769 $x9007 $x8236 $x9710 $x5199)))))))))))
(assert
 (let (($x567 (= cell_1_8 9)))
 (let (($x4127 (= cell_1_8 8)))
 (let (($x4561 (= cell_1_8 7)))
 (let (($x7303 (= cell_1_8 6)))
 (let (($x6798 (= cell_1_8 5)))
 (let (($x6878 (= cell_1_8 4)))
 (let (($x10246 (= cell_1_8 3)))
 (let (($x7074 (= cell_1_8 2)))
 (let (($x7547 (= cell_1_8 1)))
 (or $x7547 $x7074 $x10246 $x6878 $x6798 $x7303 $x4561 $x4127 $x567)))))))))))
(assert
 (let (($x451 (= cell_2_8 9)))
 (let (($x8871 (= cell_2_8 8)))
 (let (($x1035 (= cell_2_8 7)))
 (let (($x1866 (= cell_2_8 6)))
 (let (($x3465 (= cell_2_8 5)))
 (let (($x6958 (= cell_2_8 4)))
 (let (($x8921 (= cell_2_8 3)))
 (let (($x4520 (= cell_2_8 2)))
 (let (($x6778 (= cell_2_8 1)))
 (or $x6778 $x4520 $x8921 $x6958 $x3465 $x1866 $x1035 $x8871 $x451)))))))))))
(assert
 (let (($x9582 (= cell_3_8 9)))
 (let (($x4661 (= cell_3_8 8)))
 (let (($x5344 (= cell_3_8 7)))
 (let (($x9838 (= cell_3_8 6)))
 (let (($x399 (= cell_3_8 5)))
 (let (($x6066 (= cell_3_8 4)))
 (let (($x7586 (= cell_3_8 3)))
 (let (($x1486 (= cell_3_8 2)))
 (let (($x7608 (= cell_3_8 1)))
 (or $x7608 $x1486 $x7586 $x6066 $x399 $x9838 $x5344 $x4661 $x9582)))))))))))
(assert
 (let (($x10072 (= cell_4_8 9)))
 (let (($x764 (= cell_4_8 8)))
 (let (($x585 (= cell_4_8 7)))
 (let (($x7914 (= cell_4_8 6)))
 (let (($x3816 (= cell_4_8 5)))
 (let (($x6810 (= cell_4_8 4)))
 (let (($x7895 (= cell_4_8 3)))
 (let (($x6136 (= cell_4_8 2)))
 (let (($x733 (= cell_4_8 1)))
 (or $x733 $x6136 $x7895 $x6810 $x3816 $x7914 $x585 $x764 $x10072)))))))))))
(assert
 (let (($x7288 (= cell_5_8 9)))
 (let (($x8049 (= cell_5_8 8)))
 (let (($x9527 (= cell_5_8 7)))
 (let (($x9516 (= cell_5_8 6)))
 (let (($x2569 (= cell_5_8 5)))
 (let (($x3708 (= cell_5_8 4)))
 (let (($x4918 (= cell_5_8 3)))
 (let (($x7284 (= cell_5_8 2)))
 (let (($x5809 (= cell_5_8 1)))
 (or $x5809 $x7284 $x4918 $x3708 $x2569 $x9516 $x9527 $x8049 $x7288)))))))))))
(assert
 (let (($x1918 (= cell_6_8 9)))
 (let (($x4480 (= cell_6_8 8)))
 (let (($x892 (= cell_6_8 7)))
 (let (($x4489 (= cell_6_8 6)))
 (let (($x3744 (= cell_6_8 5)))
 (let (($x3206 (= cell_6_8 4)))
 (let (($x4476 (= cell_6_8 3)))
 (let (($x8528 (= cell_6_8 2)))
 (let (($x3229 (= cell_6_8 1)))
 (or $x3229 $x8528 $x4476 $x3206 $x3744 $x4489 $x892 $x4480 $x1918)))))))))))
(assert
 (let (($x7525 (= cell_7_8 9)))
 (let (($x9344 (= cell_7_8 8)))
 (let (($x9352 (= cell_7_8 7)))
 (let (($x3595 (= cell_7_8 6)))
 (let (($x5311 (= cell_7_8 5)))
 (let (($x6139 (= cell_7_8 4)))
 (let (($x6450 (= cell_7_8 3)))
 (let (($x3516 (= cell_7_8 2)))
 (let (($x9356 (= cell_7_8 1)))
 (or $x9356 $x3516 $x6450 $x6139 $x5311 $x3595 $x9352 $x9344 $x7525)))))))))))
(assert
 (let (($x1881 (= cell_8_8 9)))
 (let (($x7699 (= cell_8_8 8)))
 (let (($x9014 (= cell_8_8 7)))
 (let (($x7233 (= cell_8_8 6)))
 (let (($x3549 (= cell_8_8 5)))
 (let (($x2218 (= cell_8_8 4)))
 (let (($x6448 (= cell_8_8 3)))
 (let (($x5443 (= cell_8_8 2)))
 (let (($x5531 (= cell_8_8 1)))
 (or $x5531 $x5443 $x6448 $x2218 $x3549 $x7233 $x9014 $x7699 $x1881)))))))))))
(assert
 (let (($x8388 (= cell_9_8 9)))
 (let (($x4122 (= cell_9_8 8)))
 (let (($x4560 (= cell_9_8 7)))
 (let (($x5400 (= cell_9_8 6)))
 (let (($x3753 (= cell_9_8 5)))
 (let (($x10006 (= cell_9_8 4)))
 (let (($x6730 (= cell_9_8 3)))
 (let (($x1875 (= cell_9_8 2)))
 (let (($x1002 (= cell_9_8 1)))
 (or $x1002 $x1875 $x6730 $x10006 $x3753 $x5400 $x4560 $x4122 $x8388)))))))))))
(assert
 (let (($x2992 (= cell_1_9 9)))
 (let (($x8436 (= cell_1_9 8)))
 (let (($x5641 (= cell_1_9 7)))
 (let (($x574 (= cell_1_9 6)))
 (let (($x6221 (= cell_1_9 5)))
 (let (($x5405 (= cell_1_9 4)))
 (let (($x8208 (= cell_1_9 3)))
 (let (($x4799 (= cell_1_9 2)))
 (let (($x3784 (= cell_1_9 1)))
 (or $x3784 $x4799 $x8208 $x5405 $x6221 $x574 $x5641 $x8436 $x2992)))))))))))
(assert
 (let (($x2042 (= cell_2_9 9)))
 (let (($x5350 (= cell_2_9 8)))
 (let (($x8139 (= cell_2_9 7)))
 (let (($x3862 (= cell_2_9 6)))
 (let (($x926 (= cell_2_9 5)))
 (let (($x9793 (= cell_2_9 4)))
 (let (($x2884 (= cell_2_9 3)))
 (let (($x4709 (= cell_2_9 2)))
 (let (($x7707 (= cell_2_9 1)))
 (or $x7707 $x4709 $x2884 $x9793 $x926 $x3862 $x8139 $x5350 $x2042)))))))))))
(assert
 (let (($x4353 (= cell_3_9 9)))
 (let (($x4130 (= cell_3_9 8)))
 (let (($x3482 (= cell_3_9 7)))
 (let (($x1413 (= cell_3_9 6)))
 (let (($x1586 (= cell_3_9 5)))
 (let (($x2207 (= cell_3_9 4)))
 (let (($x9922 (= cell_3_9 3)))
 (let (($x3315 (= cell_3_9 2)))
 (let (($x2917 (= cell_3_9 1)))
 (or $x2917 $x3315 $x9922 $x2207 $x1586 $x1413 $x3482 $x4130 $x4353)))))))))))
(assert
 (let (($x9662 (= cell_4_9 9)))
 (let (($x8369 (= cell_4_9 8)))
 (let (($x210 (= cell_4_9 7)))
 (let (($x6341 (= cell_4_9 6)))
 (let (($x8908 (= cell_4_9 5)))
 (let (($x3099 (= cell_4_9 4)))
 (let (($x10212 (= cell_4_9 3)))
 (let (($x1052 (= cell_4_9 2)))
 (let (($x4647 (= cell_4_9 1)))
 (or $x4647 $x1052 $x10212 $x3099 $x8908 $x6341 $x210 $x8369 $x9662)))))))))))
(assert
 (let (($x5247 (= cell_5_9 9)))
 (let (($x5267 (= cell_5_9 8)))
 (let (($x8551 (= cell_5_9 7)))
 (let (($x6425 (= cell_5_9 6)))
 (let (($x3815 (= cell_5_9 5)))
 (let (($x5427 (= cell_5_9 4)))
 (let (($x5239 (= cell_5_9 3)))
 (let (($x1236 (= cell_5_9 2)))
 (let (($x7368 (= cell_5_9 1)))
 (or $x7368 $x1236 $x5239 $x5427 $x3815 $x6425 $x8551 $x5267 $x5247)))))))))))
(assert
 (let (($x9581 (= cell_6_9 9)))
 (let (($x9109 (= cell_6_9 8)))
 (let (($x8900 (= cell_6_9 7)))
 (let (($x4213 (= cell_6_9 6)))
 (let (($x6145 (= cell_6_9 5)))
 (let (($x2714 (= cell_6_9 4)))
 (let (($x9828 (= cell_6_9 3)))
 (let (($x1576 (= cell_6_9 2)))
 (let (($x4152 (= cell_6_9 1)))
 (or $x4152 $x1576 $x9828 $x2714 $x6145 $x4213 $x8900 $x9109 $x9581)))))))))))
(assert
 (let (($x9417 (= cell_7_9 9)))
 (let (($x7953 (= cell_7_9 8)))
 (let (($x7692 (= cell_7_9 7)))
 (let (($x9745 (= cell_7_9 6)))
 (let (($x4379 (= cell_7_9 5)))
 (let (($x4815 (= cell_7_9 4)))
 (let (($x8138 (= cell_7_9 3)))
 (let (($x5791 (= cell_7_9 2)))
 (let (($x3724 (= cell_7_9 1)))
 (or $x3724 $x5791 $x8138 $x4815 $x4379 $x9745 $x7692 $x7953 $x9417)))))))))))
(assert
 (let (($x6946 (= cell_8_9 9)))
 (let (($x8350 (= cell_8_9 8)))
 (let (($x8963 (= cell_8_9 7)))
 (let (($x4650 (= cell_8_9 6)))
 (let (($x1854 (= cell_8_9 5)))
 (let (($x1823 (= cell_8_9 4)))
 (let (($x2395 (= cell_8_9 3)))
 (let (($x9099 (= cell_8_9 2)))
 (let (($x3359 (= cell_8_9 1)))
 (or $x3359 $x9099 $x2395 $x1823 $x1854 $x4650 $x8963 $x8350 $x6946)))))))))))
(assert
 (let (($x8835 (= cell_9_9 9)))
 (let (($x6231 (= cell_9_9 8)))
 (let (($x3337 (= cell_9_9 7)))
 (let (($x3643 (= cell_9_9 6)))
 (let (($x7451 (= cell_9_9 5)))
 (let (($x7811 (= cell_9_9 4)))
 (let (($x5057 (= cell_9_9 3)))
 (let (($x1034 (= cell_9_9 2)))
 (let (($x3656 (= cell_9_9 1)))
 (or $x3656 $x1034 $x5057 $x7811 $x7451 $x3643 $x3337 $x6231 $x8835)))))))))))
(assert
 (and (distinct cell_1_1 cell_1_2 cell_1_3 cell_1_4 cell_1_5 cell_1_6 cell_1_7 cell_1_8 cell_1_9) true))
(assert
 (and (distinct cell_2_1 cell_2_2 cell_2_3 cell_2_4 cell_2_5 cell_2_6 cell_2_7 cell_2_8 cell_2_9) true))
(assert
 (and (distinct cell_3_1 cell_3_2 cell_3_3 cell_3_4 cell_3_5 cell_3_6 cell_3_7 cell_3_8 cell_3_9) true))
(assert
 (and (distinct cell_4_1 cell_4_2 cell_4_3 cell_4_4 cell_4_5 cell_4_6 cell_4_7 cell_4_8 cell_4_9) true))
(assert
 (and (distinct cell_5_1 cell_5_2 cell_5_3 cell_5_4 cell_5_5 cell_5_6 cell_5_7 cell_5_8 cell_5_9) true))
(assert
 (and (distinct cell_6_1 cell_6_2 cell_6_3 cell_6_4 cell_6_5 cell_6_6 cell_6_7 cell_6_8 cell_6_9) true))
(assert
 (and (distinct cell_7_1 cell_7_2 cell_7_3 cell_7_4 cell_7_5 cell_7_6 cell_7_7 cell_7_8 cell_7_9) true))
(assert
 (and (distinct cell_8_1 cell_8_2 cell_8_3 cell_8_4 cell_8_5 cell_8_6 cell_8_7 cell_8_8 cell_8_9) true))
(assert
 (and (distinct cell_9_1 cell_9_2 cell_9_3 cell_9_4 cell_9_5 cell_9_6 cell_9_7 cell_9_8 cell_9_9) true))
(assert
 (and (distinct cell_1_1 cell_2_1 cell_3_1 cell_4_1 cell_5_1 cell_6_1 cell_7_1 cell_8_1 cell_9_1) true))
(assert
 (and (distinct cell_1_2 cell_2_2 cell_3_2 cell_4_2 cell_5_2 cell_6_2 cell_7_2 cell_8_2 cell_9_2) true))
(assert
 (and (distinct cell_1_3 cell_2_3 cell_3_3 cell_4_3 cell_5_3 cell_6_3 cell_7_3 cell_8_3 cell_9_3) true))
(assert
 (and (distinct cell_1_4 cell_2_4 cell_3_4 cell_4_4 cell_5_4 cell_6_4 cell_7_4 cell_8_4 cell_9_4) true))
(assert
 (and (distinct cell_1_5 cell_2_5 cell_3_5 cell_4_5 cell_5_5 cell_6_5 cell_7_5 cell_8_5 cell_9_5) true))
(assert
 (and (distinct cell_1_6 cell_2_6 cell_3_6 cell_4_6 cell_5_6 cell_6_6 cell_7_6 cell_8_6 cell_9_6) true))
(assert
 (and (distinct cell_1_7 cell_2_7 cell_3_7 cell_4_7 cell_5_7 cell_6_7 cell_7_7 cell_8_7 cell_9_7) true))
(assert
 (and (distinct cell_1_8 cell_2_8 cell_3_8 cell_4_8 cell_5_8 cell_6_8 cell_7_8 cell_8_8 cell_9_8) true))
(assert
 (and (distinct cell_1_9 cell_2_9 cell_3_9 cell_4_9 cell_5_9 cell_6_9 cell_7_9 cell_8_9 cell_9_9) true))
(assert
 (and (distinct cell_1_1 cell_1_2 cell_1_3 cell_2_1 cell_2_2 cell_2_3 cell_3_1 cell_3_2 cell_3_3) true))
(assert
 (and (distinct cell_1_4 cell_1_5 cell_1_6 cell_2_4 cell_2_5 cell_2_6 cell_3_4 cell_3_5 cell_3_6) true))
(assert
 (and (distinct cell_1_7 cell_1_8 cell_1_9 cell_2_7 cell_2_8 cell_2_9 cell_3_7 cell_3_8 cell_3_9) true))
(assert
 (and (distinct cell_4_1 cell_4_2 cell_4_3 cell_5_1 cell_5_2 cell_5_3 cell_6_1 cell_6_2 cell_6_3) true))
(assert
 (and (distinct cell_4_4 cell_4_5 cell_4_6 cell_5_4 cell_5_5 cell_5_6 cell_6_4 cell_6_5 cell_6_6) true))
(assert
 (and (distinct cell_4_7 cell_4_8 cell_4_9 cell_5_7 cell_5_8 cell_5_9 cell_6_7 cell_6_8 cell_6_9) true))
(assert
 (and (distinct cell_7_1 cell_7_2 cell_7_3 cell_8_1 cell_8_2 cell_8_3 cell_9_1 cell_9_2 cell_9_3) true))
(assert
 (and (distinct cell_7_4 cell_7_5 cell_7_6 cell_8_4 cell_8_5 cell_8_6 cell_9_4 cell_9_5 cell_9_6) true))
(assert
 (and (distinct cell_7_7 cell_7_8 cell_7_9 cell_8_7 cell_8_8 cell_8_9 cell_9_7 cell_9_8 cell_9_9) true))
(assert
 (let (($x804 (and (distinct cell_5_9 cell_6_8 cell_7_7 cell_8_6) true)))
 (let (($x9942 (and (distinct cell_2_9 cell_3_8 cell_4_7 cell_5_6 cell_6_5 cell_7_4 cell_8_3 cell_9_2) true)))
 (let (($x5173 (and (distinct cell_1_8 cell_2_7 cell_3_6 cell_4_5 cell_5_4 cell_6_3 cell_7_2 cell_8_1) true)))
 (let (($x6753 (and (distinct cell_1_5 cell_2_4 cell_3_3 cell_4_2) true)))
 (let (($x3871 (and (distinct cell_5_1 cell_6_2 cell_7_3 cell_8_4) true)))
 (let (($x7063 (and (distinct cell_2_1 cell_3_2 cell_4_3 cell_5_4 cell_6_5 cell_7_6 cell_8_7 cell_9_8) true)))
 (let (($x6977 (and (distinct cell_1_2 cell_2_3 cell_3_4 cell_4_5 cell_5_6 cell_6_7 cell_7_8 cell_8_9) true)))
 (let (($x1033 (and (distinct cell_1_5 cell_2_6 cell_3_7 cell_4_8) true)))
 (and $x1033 $x6977 $x7063 $x3871 $x6753 $x5173 $x9942 $x804))))))))))
(assert
 (= cell_1_5 1))
(assert
 (= cell_2_9 1))
(assert
 (= cell_3_1 1))
(assert
 (= cell_4_3 1))
(assert
 (= cell_5_7 1))
(assert
 (= cell_6_6 1))
(assert
 (= cell_7_2 1))
(assert
 (= cell_8_8 1))
(assert
 (= cell_9_4 1))
(assert
 (= cell_1_8 2))
(assert
 (= cell_2_4 2))
(assert
 (= cell_3_2 2))
(assert
 (= cell_4_1 2))
(assert
 (= cell_5_6 2))
(assert
 (= cell_6_9 2))
(assert
 (= cell_7_7 2))
(assert
 (= cell_8_5 2))
(assert
 (= cell_9_3 2))
(assert
 (= cell_1_7 3))
(assert
 (= cell_2_6 3))
(assert
 (= cell_3_3 3))
(assert
 (= cell_4_5 3))
(check-sat)

